NAME : a280
COMMENT : Tour length 3353
TYPE : TOUR
DIMENSION : 280
TOUR_SECTION
1
280
2
242
241
235
236
237
232
233
234
225
215
214
211
210
207
212
213
216
221
220
217
218
219
222
223
224
226
227
228
229
230
251
250
247
246
231
238
239
240
245
244
243
248
249
256
255
252
209
208
253
254
257
258
259
260
261
262
263
268
136
135
134
270
269
137
138
139
140
141
148
147
146
143
144
200
201
196
195
194
197
198
199
145
142
149
150
178
151
152
156
153
155
154
129
128
127
126
125
30
31
32
33
34
35
36
37
38
39
40
41
42
43
60
61
118
117
115
116
86
85
84
83
82
81
80
79
76
75
74
73
72
71
70
67
66
65
64
63
62
59
44
45
46
47
48
49
50
51
52
53
54
55
56
57
58
68
69
87
113
114
111
110
108
104
103
102
101
100
99
98
93
94
95
96
97
92
91
90
89
109
112
88
105
106
173
174
161
175
160
159
158
157
119
120
121
122
123
124
29
28
27
26
22
25
23
24
14
13
12
11
10
8
7
9
275
276
277
4
279
278
3
5
6
274
273
272
271
16
17
18
19
20
21
130
131
132
133
267
266
265
264
206
205
204
203
202
193
192
191
190
189
188
187
185
184
183
182
181
176
177
180
179
162
163
164
165
166
167
168
169
170
171
172
107
77
78
186
15
1
-1
EOF